55178
55, 28, 6, 3, 43, 40, 51, 13, 41, 24, 50, 20, 7, 37, 5, 35, 38, 8, 44, 32, 19, 49, 48, 17, 23, 21, 29, 22, 10, 16, 39, 36, 46, 15, 25, 31, 27, 1, 33, 42, 11, 45, 52, 2, 14, 12, 18, 4, 30, 47, 54, 9, 34, 53, 26
